AES/1_5_4/ssaes_r1-20_c5_rw1_e4_f0_k1-20_aes_1base_box_aes_mc_bidirectional/ExperimentMinisat_r16_k18cnf_2011-10-30-044935/Result
WARNING: for repeatability, setting FPU to use double precision
============================[ Problem Statistics ]=============================
|                                                                             |
|  Number of variables:          1468                                         |
|  Number of clauses:            6512                                         |
|  Parse time:                   0.00 s                                       |
|  Eliminated clauses:           0.02 Mb                                      |
|  Simplification time:          0.00 s                                       |
|                                                                             |
=============================[ Search Statistics ]==============================
| Conflicts  |          ORIGINAL         |          LEARNT          | Progress |
|            |    Vars  Clauses Literals |    Limit  Clauses Lit/Cl |          |
================================================================================
|        100 |    1024     5112    16736 |     1874      100     23 |  7.085 % |
|        250 |    1024     5112    16736 |     2061      250     25 |  7.085 % |
|        475 |    1024     5112    16736 |     2268      475     24 |  7.085 % |
|        812 |    1024     5112    16736 |     2494      812     24 |  7.085 % |
|       1318 |    1024     5112    16736 |     2744     1318     24 |  7.085 % |
|       2077 |    1024     5112    16736 |     3018     2077     24 |  7.085 % |
|       3216 |    1024     5112    16736 |     3320     1640     20 |  7.085 % |
|       4924 |    1024     5112    16736 |     3652     3348     23 |  7.085 % |
|       7486 |    1024     5112    16736 |     4017     2110     17 |  7.085 % |
|      11330 |    1024     5112    16736 |     4419     3869     19 |  7.085 % |
|      17096 |    1024     5112    16736 |     4861     2783     18 |  7.085 % |
|      25745 |    1024     5112    16736 |     5347     3914     20 |  7.085 % |
|      38719 |    1024     5112    16736 |     5882     3129     16 |  7.085 % |
|      58180 |    1024     5112    16736 |     6470     4488     18 |  7.085 % |
|      87372 |    1024     5112    16736 |     7118     3884     17 |  7.085 % |
|     131161 |    1024     5112    16736 |     7829     4084     16 |  7.085 % |
|     196845 |    1024     5112    16736 |     8612     5978     18 |  7.085 % |
|     295371 |    1024     5112    16736 |     9474     8182     19 |  7.085 % |
|     443160 |    1024     5112    16736 |    10421     6807     18 |  7.085 % |
|     664843 |    1024     5112    16736 |    11463     6573     17 |  7.085 % |
|     997368 |    1024     5112    16736 |    12610     8322     19 |  7.085 % |
|    1496156 |    1024     5112    16736 |    13871     9823     19 |  7.085 % |
|    2244338 |    1024     5112    16736 |    15258     8281     15 |  7.085 % |
|    3366612 |    1024     5112    16736 |    16783    14069     18 |  7.085 % |
|    5050023 |    1024     5112    16736 |    18462    13757     16 |  7.085 % |
===============================================================================
restarts              : 11004
conflicts             : 6782842        (8907 /sec)
decisions             : 7411460        (0.00 % random) (9733 /sec)
propagations          : 3273748233     (4299156 /sec)
conflict literals     : 145193162      (56.03 % deleted)
Memory used           : 17.00 MB
CPU time              : 761.486 s

SATISFIABLE
